(set-option :produce-models true)
(set-logic QF_LRA)
(set-info :notes | Strip-packing problem.|)
(declare-fun x0 () Real)
(declare-fun y0 () Real)
(declare-fun x1 () Real)
(declare-fun y1 () Real)
(declare-fun x2 () Real)
(declare-fun y2 () Real)
(declare-fun x3 () Real)
(declare-fun y3 () Real)
(declare-fun x4 () Real)
(declare-fun y4 () Real)
(declare-fun x5 () Real)
(declare-fun y5 () Real)
(declare-fun x6 () Real)
(declare-fun y6 () Real)
(declare-fun x7 () Real)
(declare-fun y7 () Real)
(declare-fun x8 () Real)
(declare-fun y8 () Real)
(declare-fun x9 () Real)
(declare-fun y9 () Real)
(declare-fun x10 () Real)
(declare-fun y10 () Real)
(declare-fun x11 () Real)
(declare-fun y11 () Real)
(declare-fun x12 () Real)
(declare-fun y12 () Real)
(declare-fun x13 () Real)
(declare-fun y13 () Real)
(declare-fun x14 () Real)
(declare-fun y14 () Real)
(declare-fun z () Real)
(declare-fun c () Real)
(assert (and (= c z) (and (>= x0 0) 
(and (>= y0 0) 
(and (>= x1 0) 
(and (>= y1 0) 
(and (>= x2 0) 
(and (>= y2 0) 
(and (>= x3 0) 
(and (>= y3 0) 
(and (>= x4 0) 
(and (>= y4 0) 
(and (>= x5 0) 
(and (>= y5 0) 
(and (>= x6 0) 
(and (>= y6 0) 
(and (>= x7 0) 
(and (>= y7 0) 
(and (>= x8 0) 
(and (>= y8 0) 
(and (>= x9 0) 
(and (>= y9 0) 
(and (>= x10 0) 
(and (>= y10 0) 
(and (>= x11 0) 
(and (>= y11 0) 
(and (>= x12 0) 
(and (>= y12 0) 
(and (>= x13 0) 
(and (>= y13 0) 
(and (>= x14 0) 
(and (>= y14 0) 
(and (>= z 0) 
(and (>= c 0) 
(and (<= (+ x0 0.5693032137) z) 
(and (<= 0.9946107441 y0) 
(and (<= y0 1.9364916731) 
(and (<= x0 (- 3.3006745854 0.5693032137)) 
(and (>= x0 0) 
(and (<= (+ x1 0.6499135722) z) 
(and (<= 0.8371902331 y1) 
(and (<= y1 1.9364916731) 
(and (<= x1 (- 3.3006745854 0.6499135722)) 
(and (>= x1 0) 
(and (<= (+ x2 0.3538065414) z) 
(and (<= 0.7795623382 y2) 
(and (<= y2 1.9364916731) 
(and (<= x2 (- 3.3006745854 0.3538065414)) 
(and (>= x2 0) 
(and (<= (+ x3 0.4375984291) z) 
(and (<= 0.5691318403 y3) 
(and (<= y3 1.9364916731) 
(and (<= x3 (- 3.3006745854 0.4375984291)) 
(and (>= x3 0) 
(and (<= (+ x4 0.3806448528) z) 
(and (<= 0.5475063266 y4) 
(and (<= y4 1.9364916731) 
(and (<= x4 (- 3.3006745854 0.3806448528)) 
(and (>= x4 0) 
(and (<= (+ x5 0.8079232706) z) 
(and (<= 0.5387788581 y5) 
(and (<= y5 1.9364916731) 
(and (<= x5 (- 3.3006745854 0.8079232706)) 
(and (>= x5 0) 
(and (<= (+ x6 0.3987046214) z) 
(and (<= 0.5340624257 y6) 
(and (<= y6 1.9364916731) 
(and (<= x6 (- 3.3006745854 0.3987046214)) 
(and (>= x6 0) 
(and (<= (+ x7 0.8004112936) z) 
(and (<= 0.3849473982 y7) 
(and (<= y7 1.9364916731) 
(and (<= x7 (- 3.3006745854 0.8004112936)) 
(and (>= x7 0) 
(and (<= (+ x8 0.4177817388) z) 
(and (<= 0.3187779235 y8) 
(and (<= y8 1.9364916731) 
(and (<= x8 (- 3.3006745854 0.4177817388)) 
(and (>= x8 0) 
(and (<= (+ x9 0.0766915345) z) 
(and (<= 0.3159747777 y9) 
(and (<= y9 1.9364916731) 
(and (<= x9 (- 3.3006745854 0.0766915345)) 
(and (>= x9 0) 
(and (<= (+ x10 0.7754169496) z) 
(and (<= 0.3159323217 y10) 
(and (<= y10 1.9364916731) 
(and (<= x10 (- 3.3006745854 0.7754169496)) 
(and (>= x10 0) 
(and (<= (+ x11 0.4636189725) z) 
(and (<= 0.1537072171 y11) 
(and (<= y11 1.9364916731) 
(and (<= x11 (- 3.3006745854 0.4636189725)) 
(and (>= x11 0) 
(and (<= (+ x12 0.8928896761) z) 
(and (<= 0.0948221092 y12) 
(and (<= y12 1.9364916731) 
(and (<= x12 (- 3.3006745854 0.8928896761)) 
(and (>= x12 0) 
(and (<= (+ x13 0.2287630152) z) 
(and (<= 0.0920997534 y13) 
(and (<= y13 1.9364916731) 
(and (<= x13 (- 3.3006745854 0.2287630152)) 
(and (>= x13 0) 
(and (<= (+ x14 0.5835089632) z) 
(and (<= 0.0541554309 y14) 
(and (<= y14 1.9364916731) 
(and (<= x14 (- 3.3006745854 0.5835089632)) 
(and (>= x14 0) 
(and (<= c 3.3006745854) 
(and (or (<= (+ x0 0.5693032137) x1) (or (<= (+ x1 0.6499135722) x0) (or (>= (- y0 0.9946107441) y1) (or (>= (- y1 0.8371902331) y0))))) 
(and (or (<= (+ x0 0.5693032137) x2) (or (<= (+ x2 0.3538065414) x0) (or (>= (- y0 0.9946107441) y2) (or (>= (- y2 0.7795623382) y0))))) 
(and (or (<= (+ x0 0.5693032137) x3) (or (<= (+ x3 0.4375984291) x0) (or (>= (- y0 0.9946107441) y3) (or (>= (- y3 0.5691318403) y0))))) 
(and (or (<= (+ x0 0.5693032137) x4) (or (<= (+ x4 0.3806448528) x0) (or (>= (- y0 0.9946107441) y4) (or (>= (- y4 0.5475063266) y0))))) 
(and (or (<= (+ x0 0.5693032137) x5) (or (<= (+ x5 0.8079232706) x0) (or (>= (- y0 0.9946107441) y5) (or (>= (- y5 0.5387788581) y0))))) 
(and (or (<= (+ x0 0.5693032137) x6) (or (<= (+ x6 0.3987046214) x0) (or (>= (- y0 0.9946107441) y6) (or (>= (- y6 0.5340624257) y0))))) 
(and (or (<= (+ x0 0.5693032137) x7) (or (<= (+ x7 0.8004112936) x0) (or (>= (- y0 0.9946107441) y7) (or (>= (- y7 0.3849473982) y0))))) 
(and (or (<= (+ x0 0.5693032137) x8) (or (<= (+ x8 0.4177817388) x0) (or (>= (- y0 0.9946107441) y8) (or (>= (- y8 0.3187779235) y0))))) 
(and (or (<= (+ x0 0.5693032137) x9) (or (<= (+ x9 0.0766915345) x0) (or (>= (- y0 0.9946107441) y9) (or (>= (- y9 0.3159747777) y0))))) 
(and (or (<= (+ x0 0.5693032137) x10) (or (<= (+ x10 0.7754169496) x0) (or (>= (- y0 0.9946107441) y10) (or (>= (- y10 0.3159323217) y0))))) 
(and (or (<= (+ x0 0.5693032137) x11) (or (<= (+ x11 0.4636189725) x0) (or (>= (- y0 0.9946107441) y11) (or (>= (- y11 0.1537072171) y0))))) 
(and (or (<= (+ x0 0.5693032137) x12) (or (<= (+ x12 0.8928896761) x0) (or (>= (- y0 0.9946107441) y12) (or (>= (- y12 0.0948221092) y0))))) 
(and (or (<= (+ x0 0.5693032137) x13) (or (<= (+ x13 0.2287630152) x0) (or (>= (- y0 0.9946107441) y13) (or (>= (- y13 0.0920997534) y0))))) 
(and (or (<= (+ x0 0.5693032137) x14) (or (<= (+ x14 0.5835089632) x0) (or (>= (- y0 0.9946107441) y14) (or (>= (- y14 0.0541554309) y0))))) 
(and (or (<= (+ x1 0.6499135722) x2) (or (<= (+ x2 0.3538065414) x1) (or (>= (- y1 0.8371902331) y2) (or (>= (- y2 0.7795623382) y1))))) 
(and (or (<= (+ x1 0.6499135722) x3) (or (<= (+ x3 0.4375984291) x1) (or (>= (- y1 0.8371902331) y3) (or (>= (- y3 0.5691318403) y1))))) 
(and (or (<= (+ x1 0.6499135722) x4) (or (<= (+ x4 0.3806448528) x1) (or (>= (- y1 0.8371902331) y4) (or (>= (- y4 0.5475063266) y1))))) 
(and (or (<= (+ x1 0.6499135722) x5) (or (<= (+ x5 0.8079232706) x1) (or (>= (- y1 0.8371902331) y5) (or (>= (- y5 0.5387788581) y1))))) 
(and (or (<= (+ x1 0.6499135722) x6) (or (<= (+ x6 0.3987046214) x1) (or (>= (- y1 0.8371902331) y6) (or (>= (- y6 0.5340624257) y1))))) 
(and (or (<= (+ x1 0.6499135722) x7) (or (<= (+ x7 0.8004112936) x1) (or (>= (- y1 0.8371902331) y7) (or (>= (- y7 0.3849473982) y1))))) 
(and (or (<= (+ x1 0.6499135722) x8) (or (<= (+ x8 0.4177817388) x1) (or (>= (- y1 0.8371902331) y8) (or (>= (- y8 0.3187779235) y1))))) 
(and (or (<= (+ x1 0.6499135722) x9) (or (<= (+ x9 0.0766915345) x1) (or (>= (- y1 0.8371902331) y9) (or (>= (- y9 0.3159747777) y1))))) 
(and (or (<= (+ x1 0.6499135722) x10) (or (<= (+ x10 0.7754169496) x1) (or (>= (- y1 0.8371902331) y10) (or (>= (- y10 0.3159323217) y1))))) 
(and (or (<= (+ x1 0.6499135722) x11) (or (<= (+ x11 0.4636189725) x1) (or (>= (- y1 0.8371902331) y11) (or (>= (- y11 0.1537072171) y1))))) 
(and (or (<= (+ x1 0.6499135722) x12) (or (<= (+ x12 0.8928896761) x1) (or (>= (- y1 0.8371902331) y12) (or (>= (- y12 0.0948221092) y1))))) 
(and (or (<= (+ x1 0.6499135722) x13) (or (<= (+ x13 0.2287630152) x1) (or (>= (- y1 0.8371902331) y13) (or (>= (- y13 0.0920997534) y1))))) 
(and (or (<= (+ x1 0.6499135722) x14) (or (<= (+ x14 0.5835089632) x1) (or (>= (- y1 0.8371902331) y14) (or (>= (- y14 0.0541554309) y1))))) 
(and (or (<= (+ x2 0.3538065414) x3) (or (<= (+ x3 0.4375984291) x2) (or (>= (- y2 0.7795623382) y3) (or (>= (- y3 0.5691318403) y2))))) 
(and (or (<= (+ x2 0.3538065414) x4) (or (<= (+ x4 0.3806448528) x2) (or (>= (- y2 0.7795623382) y4) (or (>= (- y4 0.5475063266) y2))))) 
(and (or (<= (+ x2 0.3538065414) x5) (or (<= (+ x5 0.8079232706) x2) (or (>= (- y2 0.7795623382) y5) (or (>= (- y5 0.5387788581) y2))))) 
(and (or (<= (+ x2 0.3538065414) x6) (or (<= (+ x6 0.3987046214) x2) (or (>= (- y2 0.7795623382) y6) (or (>= (- y6 0.5340624257) y2))))) 
(and (or (<= (+ x2 0.3538065414) x7) (or (<= (+ x7 0.8004112936) x2) (or (>= (- y2 0.7795623382) y7) (or (>= (- y7 0.3849473982) y2))))) 
(and (or (<= (+ x2 0.3538065414) x8) (or (<= (+ x8 0.4177817388) x2) (or (>= (- y2 0.7795623382) y8) (or (>= (- y8 0.3187779235) y2))))) 
(and (or (<= (+ x2 0.3538065414) x9) (or (<= (+ x9 0.0766915345) x2) (or (>= (- y2 0.7795623382) y9) (or (>= (- y9 0.3159747777) y2))))) 
(and (or (<= (+ x2 0.3538065414) x10) (or (<= (+ x10 0.7754169496) x2) (or (>= (- y2 0.7795623382) y10) (or (>= (- y10 0.3159323217) y2))))) 
(and (or (<= (+ x2 0.3538065414) x11) (or (<= (+ x11 0.4636189725) x2) (or (>= (- y2 0.7795623382) y11) (or (>= (- y11 0.1537072171) y2))))) 
(and (or (<= (+ x2 0.3538065414) x12) (or (<= (+ x12 0.8928896761) x2) (or (>= (- y2 0.7795623382) y12) (or (>= (- y12 0.0948221092) y2))))) 
(and (or (<= (+ x2 0.3538065414) x13) (or (<= (+ x13 0.2287630152) x2) (or (>= (- y2 0.7795623382) y13) (or (>= (- y13 0.0920997534) y2))))) 
(and (or (<= (+ x2 0.3538065414) x14) (or (<= (+ x14 0.5835089632) x2) (or (>= (- y2 0.7795623382) y14) (or (>= (- y14 0.0541554309) y2))))) 
(and (or (<= (+ x3 0.4375984291) x4) (or (<= (+ x4 0.3806448528) x3) (or (>= (- y3 0.5691318403) y4) (or (>= (- y4 0.5475063266) y3))))) 
(and (or (<= (+ x3 0.4375984291) x5) (or (<= (+ x5 0.8079232706) x3) (or (>= (- y3 0.5691318403) y5) (or (>= (- y5 0.5387788581) y3))))) 
(and (or (<= (+ x3 0.4375984291) x6) (or (<= (+ x6 0.3987046214) x3) (or (>= (- y3 0.5691318403) y6) (or (>= (- y6 0.5340624257) y3))))) 
(and (or (<= (+ x3 0.4375984291) x7) (or (<= (+ x7 0.8004112936) x3) (or (>= (- y3 0.5691318403) y7) (or (>= (- y7 0.3849473982) y3))))) 
(and (or (<= (+ x3 0.4375984291) x8) (or (<= (+ x8 0.4177817388) x3) (or (>= (- y3 0.5691318403) y8) (or (>= (- y8 0.3187779235) y3))))) 
(and (or (<= (+ x3 0.4375984291) x9) (or (<= (+ x9 0.0766915345) x3) (or (>= (- y3 0.5691318403) y9) (or (>= (- y9 0.3159747777) y3))))) 
(and (or (<= (+ x3 0.4375984291) x10) (or (<= (+ x10 0.7754169496) x3) (or (>= (- y3 0.5691318403) y10) (or (>= (- y10 0.3159323217) y3))))) 
(and (or (<= (+ x3 0.4375984291) x11) (or (<= (+ x11 0.4636189725) x3) (or (>= (- y3 0.5691318403) y11) (or (>= (- y11 0.1537072171) y3))))) 
(and (or (<= (+ x3 0.4375984291) x12) (or (<= (+ x12 0.8928896761) x3) (or (>= (- y3 0.5691318403) y12) (or (>= (- y12 0.0948221092) y3))))) 
(and (or (<= (+ x3 0.4375984291) x13) (or (<= (+ x13 0.2287630152) x3) (or (>= (- y3 0.5691318403) y13) (or (>= (- y13 0.0920997534) y3))))) 
(and (or (<= (+ x3 0.4375984291) x14) (or (<= (+ x14 0.5835089632) x3) (or (>= (- y3 0.5691318403) y14) (or (>= (- y14 0.0541554309) y3))))) 
(and (or (<= (+ x4 0.3806448528) x5) (or (<= (+ x5 0.8079232706) x4) (or (>= (- y4 0.5475063266) y5) (or (>= (- y5 0.5387788581) y4))))) 
(and (or (<= (+ x4 0.3806448528) x6) (or (<= (+ x6 0.3987046214) x4) (or (>= (- y4 0.5475063266) y6) (or (>= (- y6 0.5340624257) y4))))) 
(and (or (<= (+ x4 0.3806448528) x7) (or (<= (+ x7 0.8004112936) x4) (or (>= (- y4 0.5475063266) y7) (or (>= (- y7 0.3849473982) y4))))) 
(and (or (<= (+ x4 0.3806448528) x8) (or (<= (+ x8 0.4177817388) x4) (or (>= (- y4 0.5475063266) y8) (or (>= (- y8 0.3187779235) y4))))) 
(and (or (<= (+ x4 0.3806448528) x9) (or (<= (+ x9 0.0766915345) x4) (or (>= (- y4 0.5475063266) y9) (or (>= (- y9 0.3159747777) y4))))) 
(and (or (<= (+ x4 0.3806448528) x10) (or (<= (+ x10 0.7754169496) x4) (or (>= (- y4 0.5475063266) y10) (or (>= (- y10 0.3159323217) y4))))) 
(and (or (<= (+ x4 0.3806448528) x11) (or (<= (+ x11 0.4636189725) x4) (or (>= (- y4 0.5475063266) y11) (or (>= (- y11 0.1537072171) y4))))) 
(and (or (<= (+ x4 0.3806448528) x12) (or (<= (+ x12 0.8928896761) x4) (or (>= (- y4 0.5475063266) y12) (or (>= (- y12 0.0948221092) y4))))) 
(and (or (<= (+ x4 0.3806448528) x13) (or (<= (+ x13 0.2287630152) x4) (or (>= (- y4 0.5475063266) y13) (or (>= (- y13 0.0920997534) y4))))) 
(and (or (<= (+ x4 0.3806448528) x14) (or (<= (+ x14 0.5835089632) x4) (or (>= (- y4 0.5475063266) y14) (or (>= (- y14 0.0541554309) y4))))) 
(and (or (<= (+ x5 0.8079232706) x6) (or (<= (+ x6 0.3987046214) x5) (or (>= (- y5 0.5387788581) y6) (or (>= (- y6 0.5340624257) y5))))) 
(and (or (<= (+ x5 0.8079232706) x7) (or (<= (+ x7 0.8004112936) x5) (or (>= (- y5 0.5387788581) y7) (or (>= (- y7 0.3849473982) y5))))) 
(and (or (<= (+ x5 0.8079232706) x8) (or (<= (+ x8 0.4177817388) x5) (or (>= (- y5 0.5387788581) y8) (or (>= (- y8 0.3187779235) y5))))) 
(and (or (<= (+ x5 0.8079232706) x9) (or (<= (+ x9 0.0766915345) x5) (or (>= (- y5 0.5387788581) y9) (or (>= (- y9 0.3159747777) y5))))) 
(and (or (<= (+ x5 0.8079232706) x10) (or (<= (+ x10 0.7754169496) x5) (or (>= (- y5 0.5387788581) y10) (or (>= (- y10 0.3159323217) y5))))) 
(and (or (<= (+ x5 0.8079232706) x11) (or (<= (+ x11 0.4636189725) x5) (or (>= (- y5 0.5387788581) y11) (or (>= (- y11 0.1537072171) y5))))) 
(and (or (<= (+ x5 0.8079232706) x12) (or (<= (+ x12 0.8928896761) x5) (or (>= (- y5 0.5387788581) y12) (or (>= (- y12 0.0948221092) y5))))) 
(and (or (<= (+ x5 0.8079232706) x13) (or (<= (+ x13 0.2287630152) x5) (or (>= (- y5 0.5387788581) y13) (or (>= (- y13 0.0920997534) y5))))) 
(and (or (<= (+ x5 0.8079232706) x14) (or (<= (+ x14 0.5835089632) x5) (or (>= (- y5 0.5387788581) y14) (or (>= (- y14 0.0541554309) y5))))) 
(and (or (<= (+ x6 0.3987046214) x7) (or (<= (+ x7 0.8004112936) x6) (or (>= (- y6 0.5340624257) y7) (or (>= (- y7 0.3849473982) y6))))) 
(and (or (<= (+ x6 0.3987046214) x8) (or (<= (+ x8 0.4177817388) x6) (or (>= (- y6 0.5340624257) y8) (or (>= (- y8 0.3187779235) y6))))) 
(and (or (<= (+ x6 0.3987046214) x9) (or (<= (+ x9 0.0766915345) x6) (or (>= (- y6 0.5340624257) y9) (or (>= (- y9 0.3159747777) y6))))) 
(and (or (<= (+ x6 0.3987046214) x10) (or (<= (+ x10 0.7754169496) x6) (or (>= (- y6 0.5340624257) y10) (or (>= (- y10 0.3159323217) y6))))) 
(and (or (<= (+ x6 0.3987046214) x11) (or (<= (+ x11 0.4636189725) x6) (or (>= (- y6 0.5340624257) y11) (or (>= (- y11 0.1537072171) y6))))) 
(and (or (<= (+ x6 0.3987046214) x12) (or (<= (+ x12 0.8928896761) x6) (or (>= (- y6 0.5340624257) y12) (or (>= (- y12 0.0948221092) y6))))) 
(and (or (<= (+ x6 0.3987046214) x13) (or (<= (+ x13 0.2287630152) x6) (or (>= (- y6 0.5340624257) y13) (or (>= (- y13 0.0920997534) y6))))) 
(and (or (<= (+ x6 0.3987046214) x14) (or (<= (+ x14 0.5835089632) x6) (or (>= (- y6 0.5340624257) y14) (or (>= (- y14 0.0541554309) y6))))) 
(and (or (<= (+ x7 0.8004112936) x8) (or (<= (+ x8 0.4177817388) x7) (or (>= (- y7 0.3849473982) y8) (or (>= (- y8 0.3187779235) y7))))) 
(and (or (<= (+ x7 0.8004112936) x9) (or (<= (+ x9 0.0766915345) x7) (or (>= (- y7 0.3849473982) y9) (or (>= (- y9 0.3159747777) y7))))) 
(and (or (<= (+ x7 0.8004112936) x10) (or (<= (+ x10 0.7754169496) x7) (or (>= (- y7 0.3849473982) y10) (or (>= (- y10 0.3159323217) y7))))) 
(and (or (<= (+ x7 0.8004112936) x11) (or (<= (+ x11 0.4636189725) x7) (or (>= (- y7 0.3849473982) y11) (or (>= (- y11 0.1537072171) y7))))) 
(and (or (<= (+ x7 0.8004112936) x12) (or (<= (+ x12 0.8928896761) x7) (or (>= (- y7 0.3849473982) y12) (or (>= (- y12 0.0948221092) y7))))) 
(and (or (<= (+ x7 0.8004112936) x13) (or (<= (+ x13 0.2287630152) x7) (or (>= (- y7 0.3849473982) y13) (or (>= (- y13 0.0920997534) y7))))) 
(and (or (<= (+ x7 0.8004112936) x14) (or (<= (+ x14 0.5835089632) x7) (or (>= (- y7 0.3849473982) y14) (or (>= (- y14 0.0541554309) y7))))) 
(and (or (<= (+ x8 0.4177817388) x9) (or (<= (+ x9 0.0766915345) x8) (or (>= (- y8 0.3187779235) y9) (or (>= (- y9 0.3159747777) y8))))) 
(and (or (<= (+ x8 0.4177817388) x10) (or (<= (+ x10 0.7754169496) x8) (or (>= (- y8 0.3187779235) y10) (or (>= (- y10 0.3159323217) y8))))) 
(and (or (<= (+ x8 0.4177817388) x11) (or (<= (+ x11 0.4636189725) x8) (or (>= (- y8 0.3187779235) y11) (or (>= (- y11 0.1537072171) y8))))) 
(and (or (<= (+ x8 0.4177817388) x12) (or (<= (+ x12 0.8928896761) x8) (or (>= (- y8 0.3187779235) y12) (or (>= (- y12 0.0948221092) y8))))) 
(and (or (<= (+ x8 0.4177817388) x13) (or (<= (+ x13 0.2287630152) x8) (or (>= (- y8 0.3187779235) y13) (or (>= (- y13 0.0920997534) y8))))) 
(and (or (<= (+ x8 0.4177817388) x14) (or (<= (+ x14 0.5835089632) x8) (or (>= (- y8 0.3187779235) y14) (or (>= (- y14 0.0541554309) y8))))) 
(and (or (<= (+ x9 0.0766915345) x10) (or (<= (+ x10 0.7754169496) x9) (or (>= (- y9 0.3159747777) y10) (or (>= (- y10 0.3159323217) y9))))) 
(and (or (<= (+ x9 0.0766915345) x11) (or (<= (+ x11 0.4636189725) x9) (or (>= (- y9 0.3159747777) y11) (or (>= (- y11 0.1537072171) y9))))) 
(and (or (<= (+ x9 0.0766915345) x12) (or (<= (+ x12 0.8928896761) x9) (or (>= (- y9 0.3159747777) y12) (or (>= (- y12 0.0948221092) y9))))) 
(and (or (<= (+ x9 0.0766915345) x13) (or (<= (+ x13 0.2287630152) x9) (or (>= (- y9 0.3159747777) y13) (or (>= (- y13 0.0920997534) y9))))) 
(and (or (<= (+ x9 0.0766915345) x14) (or (<= (+ x14 0.5835089632) x9) (or (>= (- y9 0.3159747777) y14) (or (>= (- y14 0.0541554309) y9))))) 
(and (or (<= (+ x10 0.7754169496) x11) (or (<= (+ x11 0.4636189725) x10) (or (>= (- y10 0.3159323217) y11) (or (>= (- y11 0.1537072171) y10))))) 
(and (or (<= (+ x10 0.7754169496) x12) (or (<= (+ x12 0.8928896761) x10) (or (>= (- y10 0.3159323217) y12) (or (>= (- y12 0.0948221092) y10))))) 
(and (or (<= (+ x10 0.7754169496) x13) (or (<= (+ x13 0.2287630152) x10) (or (>= (- y10 0.3159323217) y13) (or (>= (- y13 0.0920997534) y10))))) 
(and (or (<= (+ x10 0.7754169496) x14) (or (<= (+ x14 0.5835089632) x10) (or (>= (- y10 0.3159323217) y14) (or (>= (- y14 0.0541554309) y10))))) 
(and (or (<= (+ x11 0.4636189725) x12) (or (<= (+ x12 0.8928896761) x11) (or (>= (- y11 0.1537072171) y12) (or (>= (- y12 0.0948221092) y11))))) 
(and (or (<= (+ x11 0.4636189725) x13) (or (<= (+ x13 0.2287630152) x11) (or (>= (- y11 0.1537072171) y13) (or (>= (- y13 0.0920997534) y11))))) 
(and (or (<= (+ x11 0.4636189725) x14) (or (<= (+ x14 0.5835089632) x11) (or (>= (- y11 0.1537072171) y14) (or (>= (- y14 0.0541554309) y11))))) 
(and (or (<= (+ x12 0.8928896761) x13) (or (<= (+ x13 0.2287630152) x12) (or (>= (- y12 0.0948221092) y13) (or (>= (- y13 0.0920997534) y12))))) 
(and (or (<= (+ x12 0.8928896761) x14) (or (<= (+ x14 0.5835089632) x12) (or (>= (- y12 0.0948221092) y14) (or (>= (- y14 0.0541554309) y12))))) 
(and (or (<= (+ x13 0.2287630152) x14) (or (<= (+ x14 0.5835089632) x13) (or (>= (- y13 0.0920997534) y14) (or (>= (- y14 0.0541554309) y13))))) )))))))))))))))))))))))))))))))))))))))))))))))))))))))))))))))))))))))))))))))))))))))))))))))))))))))))))))))))))))))))))))))))))))))))))))))))))))))))))))))))))))))))))))))))))))))))))))))))))))))))))))))))))))))
(minimize c)
(check-sat)
(get-objectives)
(exit)
